
%FILE DATA:	Soccer Computational Problem for MiniZinc Models	%
%AUTHOR:	Jack Wall	%
%CONTACT:  	116397063@umail.ucc.ie			%
%LAST UPDATE:	03/03/2020, 12:08:58						%
%DESCRIPTION: 	32 games played with 24 games left				%


n=8; %number of teams

%Games to play
games=[|4,8|4,1|4,6|5,4|3,4|8,4|3,2|2,7|1,3|7,4|5,8|2,4|1,2|3,8|3,6|6,2|2,6|6,1|8,3|3,7|6,4|4,3|4,7|5,1|];

%Initial points
iPoints=[12,8,5,6,11,10,19,17];

%POSITION CONSTRAINTS
% [|teamID, operator, position|...]
% operators index:
%  1 for =  operator
%  2 for >  operator
%  3 for >= operator
%  4 for <  operator
%  5 for <= operator
positionConstraints=[|7,4,2|8,1,2|4,2,2|3,3,4|1,3,5|];